c Random generated cnf formula, satisfiable: false
p cnf 10 50
4 -8 2 0
5 4 -2 0
10 -5 -9 0
-2 3 9 0
7 -9 2 0
-9 4 -5 0
7 -5 1 0
-2 1 4 0
-7 8 -1 0
5 2 4 0
-1 5 3 0
2 6 -8 0
9 -5 -8 0
5 -1 8 0
3 6 -2 0
-1 9 3 0
-6 -5 -4 0
6 -7 -5 0
3 -4 -2 0
-10 4 -6 0
-1 -8 -5 0
8 -5 2 0
-10 -5 4 0
-5 6 1 0
2 -6 -9 0
-2 9 -6 0
7 -1 -8 0
1 7 -4 0
-10 -1 -8 0
3 7 -5 0
6 -10 7 0
-5 -10 9 0
-1 7 5 0
6 -5 10 0
8 -9 -2 0
6 1 -7 0
9 3 -7 0
-2 -3 1 0
8 4 3 0
5 2 9 0
-2 -1 10 0
6 3 -10 0
3 -1 2 0
3 -10 4 0
-2 -4 -8 0
10 8 -3 0
-8 6 5 0
1 -4 10 0
7 5 -8 0
-10 -8 -4 0
